-810,735
-438,534
-64,-288
-472,-621
239,-359
631,287
20,-335
-969,501
495,-560
-67 ,67
-727,-671
-577,846
-867,627
833,-827
-582,42
-79,242
-818,476
-591,-614
644,89
-603,109
287,376
509,-280
6,638
-245,-55
-823,-463
-756,418
703,907
705,-461
-387,-231
-385,-711
-815,448
550,558
-990,-561
-695,-122
993,493
-124,-631
895,782
353,-786
-433,-634
-343,-86
-224,-700
-435,-316
534,183
-808,-173
604,337
508,-877
509,916
244,99
-160,-216
295,407